n_machines = 3;
n_resources = 4;
n_jobs = 80;
horizon = 377;
LB = 125;
n_jobs_per_resource = [20, 20, 20, 20];
duration = [5, 8, 1, 6, 9, 5, 1, 6, 3, 9, 3, 6, 7, 5, 5, 6, 1, 7, 3, 7, 7, 1, 1, 4, 9, 7, 3, 6, 2, 5, 2, 4, 4, 4, 2, 3, 1, 6, 1, 2, 3, 7, 8, 9, 3, 4, 1, 4, 5, 7, 1, 1, 8, 3, 2, 9, 2, 9, 5, 8, 3, 5, 7, 1, 9, 2, 6, 9, 6, 4, 3, 2, 5, 3, 6, 6, 6, 6, 3, 9]